
Welcome to IBM(R) ILOG(R) CPLEX(R) Interactive Optimizer 22.1.1.0
  with Simplex, Mixed Integer & Barrier Optimizers
5725-A06 5725-A29 5724-Y48 5724-Y49 5724-Y54 5724-Y55 5655-Y21
Copyright IBM Corp. 1988, 2022.  All Rights Reserved.

Type 'help' for a list of available commands.
Type 'help' followed by a command name for more
information on commands.

CPLEX> Selected objective sense:  MINIMIZE
Selected objective  name:  00000000
Selected RHS        name:  RHS1
Selected bound      name:  BOUND
Problem 'ee.mps' read.
Read time = 0.03 sec. (3.14 ticks)
CPLEX> New value for time limit in seconds: 7200
CPLEX> New value for parallel optimization mode: -1
CPLEX> New value for default parallel thread count: 40
CPLEX> New value for mixed integer optimality gap tolerance: 1e-13
CPLEX> Version identifier: 22.1.1.0 | 2022-11-28 | 9160aff4d
CPXPARAM_Threads                                 40
CPXPARAM_Parallel                                -1
CPXPARAM_TimeLimit                               7200
CPXPARAM_MIP_Tolerances_MIPGap                   1e-13
Found incumbent of value 0.000000 after 0.00 sec. (0.31 ticks)
Tried aggregator 4 times.
MIP Presolve eliminated 256 rows and 3267 columns.
MIP Presolve modified 5814 coefficients.
Aggregator did 777 substitutions.
Reduced MIP has 3483 rows, 7142 columns, and 26419 nonzeros.
Reduced MIP has 7142 binaries, 0 generals, 0 SOSs, and 0 indicators.
Presolve time = 0.08 sec. (85.18 ticks)
Probing fixed 62 vars, tightened 0 bounds.
Probing time = 0.06 sec. (29.12 ticks)
Tried aggregator 2 times.
Detecting symmetries...
MIP Presolve eliminated 35 rows and 91 columns.
Aggregator did 2 substitutions.
Reduced MIP has 3446 rows, 7043 columns, and 26072 nonzeros.
Reduced MIP has 7043 binaries, 0 generals, 0 SOSs, and 0 indicators.
Presolve time = 0.04 sec. (45.91 ticks)
Probing time = 0.03 sec. (6.66 ticks)
Clique table members: 16942.
MIP emphasis: balance optimality and feasibility.
MIP search method: dynamic search.
Parallel mode: opportunistic, using up to 40 threads.
Root relaxation solution time = 0.08 sec. (65.50 ticks)

        Nodes                                         Cuts/
   Node  Left     Objective  IInf  Best Integer    Best Bound    ItCnt     Gap

*     0+    0                            0.0000  -1.31000e+13              --- 
*     0+    0                      -6.49000e+12  -1.31000e+13           101.85%
      0     0  -1.30900e+13    19  -6.49000e+12  -1.30900e+13     1828  101.69%
*     0+    0                      -1.30900e+13  -1.30900e+13             0.00%
      0     0  -1.30900e+13   103  -1.30900e+13      Cuts: 35     1993    0.00%
*     0+    0                      -1.30900e+13  -1.30900e+13             0.00%
      0     0  -1.30900e+13   123  -1.30900e+13      Cuts: 43     2098    0.00%
*     0+    0                      -1.30900e+13  -1.30900e+13             0.00%
Detecting symmetries...

Repeating presolve.
Tried aggregator 2 times.
MIP Presolve eliminated 2014 rows and 4018 columns.
MIP Presolve added 2 rows and 0 columns.
MIP Presolve modified 7 coefficients.
Aggregator did 518 substitutions.
Reduced MIP has 916 rows, 2455 columns, and 8491 nonzeros.
Reduced MIP has 2455 binaries, 0 generals, 0 SOSs, and 0 indicators.
Presolve time = 0.03 sec. (35.41 ticks)
Probing time = 0.00 sec. (3.22 ticks)
Tried aggregator 1 time.
Detecting symmetries...
Reduced MIP has 916 rows, 2455 columns, and 8491 nonzeros.
Reduced MIP has 2455 binaries, 0 generals, 0 SOSs, and 0 indicators.
Presolve time = 0.01 sec. (6.09 ticks)
Represolve time = 0.05 sec. (53.97 ticks)
Probing time = 0.00 sec. (3.19 ticks)
Clique table members: 5869.
MIP emphasis: balance optimality and feasibility.
MIP search method: dynamic search.
Parallel mode: opportunistic, using up to 40 threads.
Root relaxation solution time = 0.03 sec. (19.54 ticks)

        Nodes                                         Cuts/
   Node  Left     Objective  IInf  Best Integer    Best Bound    ItCnt     Gap

*     0+    0                      -1.30900e+13  -1.30900e+13             0.00%
      0     0  -1.30900e+13    71  -1.30900e+13  -1.30900e+13     2772    0.00%
      0     0  -1.30900e+13   110  -1.30900e+13      Cuts: 62     3019    0.00%
      0     0  -1.30900e+13   127  -1.30900e+13      Cuts: 76     3265    0.00%
      0     2  -1.30900e+13   127  -1.30900e+13  -1.30900e+13     3265    0.00%
Elapsed time = 1.22 sec. (847.90 ticks, tree = 0.02 MB, solutions = 6)
*   168    67      integral     0  -1.30900e+13  -1.30900e+13    33537    0.00%
   4013   223  -1.30900e+13    52  -1.30900e+13  -1.30900e+13    52748    0.00%

Clique cuts applied:  22
Cover cuts applied:  360
Flow cuts applied:  6
Mixed integer rounding cuts applied:  7
Zero-half cuts applied:  14
Lift and project cuts applied:  26
Gomory fractional cuts applied:  9

Root node processing (before b&c):
  Real time             =    0.99 sec. (848.05 ticks)
Parallel b&c, 40 threads:
  Real time             =    1.04 sec. (478.66 ticks)
  Sync time (average)   =    0.32 sec.
  Wait time (average)   =    0.00 sec.
                          ------------
Total (root+branch&cut) =    2.03 sec. (1326.72 ticks)

Solution pool: 12 solutions saved.

MIP - Integer optimal solution:  Objective = -1.3089999990e+13
Solution time =    2.10 sec.  Iterations = 135778  Nodes = 6078
Deterministic time = 1326.75 ticks  (632.06 ticks/sec)

CPLEX> Solution 'p13' written to file 'ee.sol'.
CPLEX> 